\ENCODING=ISO-8859-1
\Problem name: ilog.cplex

Minimize
 obj1: 105784 x1 + 94299 x2 + 94068 x3 + 108408 x4 + 103364 x5 + 92475 x6
       + 95575 x7 + 91134 x8 + 91366 x9 + 103855 x10 + 90891 x11 + 100533 x12
       + 109025 x13 + 106992 x14 + 95845 x15 + 94247 x16 + 99465 x17
       + 96561 x18 + 97170 x19 + 92266 x20 + 97181 x21 + 105159 x22 + 97656 x23
       + 107834 x24 + 102305 x25 + 109206 x26 + 99264 x27 + 102345 x28
       + 107844 x29 + 93701 x30 + 98142 x31 + 97110 x32 + 102983 x33
       + 94490 x34 + 107693 x35 + 96602 x36 + 108072 x37 + 101254 x38
       + 93668 x39 + 90160 x40 + 105039 x41 + 109619 x42 + 98725 x43
       + 102092 x44 + 90763 x45 + 96560 x46 + 92982 x47 + 93787 x48
       + 100328 x49 + 99736 x50 + 108402 x51 + 92173 x52 + 101283 x53
       + 97156 x54 + 101258 x55 + 95823 x56 + 102917 x57 + 102078 x58
       + 94868 x59 + 107119 x60 + 100948 x61 + 95608 x62 + 95216 x63
       + 103097 x64 + 90025 x65 + 107674 x66 + 94527 x67 + 104146 x68
       + 99203 x69 + 102054 x70 + 105650 x71 + 93128 x72 + 92830 x73
       + 92910 x74 + 97079 x75 + 94596 x76 + 97094 x77 + 99757 x78 + 103166 x79
       + 95487 x80 + 96457 x81 + 105471 x82 + 96072 x83 + 104000 x84
       + 104053 x85 + 97556 x86 + 98713 x87 + 104340 x88 + 100630 x89
       + 104212 x90 + 91260 x91 + 91570 x92 + 97710 x93 + 103567 x94
       + 97656 x95 + 103043 x96 + 92395 x97 + 107039 x98 + 93177 x99
       + 100702 x100 + 101987 x101 + 92526 x102 + 103614 x103 + 107506 x104
       + 106206 x105 + 93630 x106 + 107049 x107 + 91547 x108 + 97880 x109
       + 96942 x110 + 92343 x111 + 101826 x112 + 108954 x113 + 106992 x114
       + 104800 x115 + 96879 x116 + 107690 x117 + 99462 x118 + 106092 x119
       + 102306 x120 + 93656 x121 + 102597 x122 + 95122 x123 + 107914 x124
       + 95430 x125 + 107232 x126 + 96089 x127 + 92935 x128 + 90463 x129
       + 96604 x130 + 100479 x131 + 99441 x132 + 95009 x133 + 105143 x134
       + 108466 x135 + 94858 x136 + 106110 x137 + 104031 x138 + 109631 x139
       + 105912 x140 + 97333 x141 + 90568 x142 + 92886 x143 + 108398 x144
       + 95283 x145 + 108222 x146 + 101168 x147 + 99834 x148 + 94874 x149
       + 104767 x150 + 106997 x151 + 107691 x152 + 91100 x153 + 101901 x154
       + 92249 x155 + 91233 x156 + 104089 x157 + 93234 x158 + 109333 x159
       + 92586 x160 + 102315 x161 + 93582 x162 + 104462 x163 + 93176 x164
       + 105164 x165 + 105872 x166 + 101378 x167 + 96361 x168 + 100218 x169
       + 92156 x170 + 109107 x171 + 106344 x172 + 109808 x173 + 105404 x174
       + 105653 x175 + 94478 x176 + 108257 x177 + 93382 x178 + 91420 x179
       + 102442 x180 + 109090 x181 + 104345 x182 + 102250 x183 + 93647 x184
       + 90414 x185 + 91459 x186 + 98746 x187 + 101785 x188 + 96191 x189
       + 105728 x190 + 105859 x191 + 98534 x192 + 101348 x193 + 105636 x194
       + 104737 x195 + 91252 x196 + 99425 x197 + 95809 x198 + 97462 x199
       + 105830 x200 + 109957 x201 + 98566 x202 + 102641 x203 + 94510 x204
       + 107635 x205 + 92256 x206 + 106554 x207 + 96960 x208 + 107092 x209
       + 92070 x210 + 96205 x211 + 108417 x212 + 91122 x213 + 91227 x214
       + 99081 x215 + 96008 x216 + 101392 x217 + 107763 x218 + 90813 x219
       + 103193 x220 + 106417 x221 + 92737 x222 + 105511 x223 + 96332 x224
       + 96669 x225 + 94571 x226 + 95480 x227 + 94058 x228 + 99658 x229
       + 103592 x230 + 102470 x231 + 105696 x232 + 92887 x233 + 97881 x234
       + 102963 x235 + 109848 x236 + 93183 x237 + 109204 x238 + 95943 x239
       + 99739 x240 + 97204 x241 + 106103 x242 + 93188 x243 + 108054 x244
       + 99804 x245 + 90162 x246 + 109331 x247 + 100696 x248 + 104461 x249
       + 101004 x250 + 105740 x251 + 98816 x252 + 106369 x253 + 101554 x254
       + 109417 x255 + 109173 x256 + 99193 x257 + 100802 x258 + 104428 x259
       + 104239 x260 + 90669 x261 + 95143 x262 + 98871 x263 + 91723 x264
       + 94071 x265 + 92856 x266 + 106571 x267 + 108681 x268 + 102062 x269
       + 107165 x270 + 104741 x271 + 99321 x272 + 104976 x273 + 101739 x274
       + 109179 x275 + 104969 x276 + 91244 x277 + 107585 x278 + 101498 x279
       + 91410 x280 + 108184 x281 + 96358 x282 + 107996 x283 + 92296 x284
       + 104372 x285 + 98852 x286 + 95622 x287 + 106398 x288 + 108414 x289
       + 96850 x290 + 96906 x291 + 91162 x292 + 103184 x293 + 91508 x294
       + 102762 x295 + 105397 x296 + 109454 x297 + 102128 x298 + 109755 x299
       + 109840 x300 + 95965 x301 + 108031 x302 + 107135 x303 + 94654 x304
       + 100572 x305 + 107250 x306 + 95968 x307 + 102921 x308 + 96556 x309
       + 104770 x310 + 101752 x311 + 95867 x312 + 108692 x313 + 92911 x314
       + 90011 x315 + 93641 x316 + 107369 x317 + 91062 x318 + 108325 x319
       + 103330 x320 + 102888 x321 + 104762 x322 + 100462 x323 + 108105 x324
       + 98318 x325 + 95663 x326 + 99765 x327 + 94911 x328 + 99797 x329
       + 108195 x330 + 94550 x331 + 104490 x332 + 109810 x333 + 99867 x334
       + 105157 x335 + 101463 x336 + 101140 x337 + 93876 x338 + 94849 x339
       + 96746 x340 + 107037 x341 + 95065 x342 + 94853 x343 + 109764 x344
       + 106606 x345 + 103248 x346 + 97651 x347 + 93689 x348 + 93495 x349
       + 101535 x350 + 91553 x351 + 98111 x352 + 102974 x353 + 94421 x354
       + 92272 x355 + 102374 x356 + 106789 x357 + 96595 x358 + 94690 x359
       + 106632 x360 + 107518 x361 + 105859 x362 + 90702 x363 + 99732 x364
       + 102061 x365 + 105715 x366 + 91238 x367 + 105931 x368 + 106953 x369
       + 90052 x370 + 96105 x371 + 108210 x372 + 94481 x373 + 105364 x374
       + 95978 x375 + 103242 x376 + 101694 x377 + 102871 x378 + 95564 x379
       + 109132 x380 + 105884 x381 + 103498 x382 + 106237 x383 + 97110 x384
       + 102180 x385 + 103976 x386 + 106283 x387 + 103953 x388 + 101562 x389
       + 103308 x390 + 107384 x391 + 103235 x392 + 90899 x393 + 105417 x394
       + 97096 x395 + 90350 x396 + 100570 x397 + 95989 x398 + 108802 x399
       + 108804 x400 + 93412 x401 + 104529 x402 + 94878 x403 + 106679 x404
       + 109780 x405 + 90252 x406 + 90761 x407 + 91477 x408 + 108891 x409
       + 105024 x410 + 99171 x411 + 94916 x412 + 90592 x413 + 109475 x414
       + 105328 x415 + 104647 x416 + 100448 x417 + 94659 x418 + 100405 x419
       + 90522 x420 + 90685 x421 + 98738 x422 + 109081 x423 + 105714 x424
       + 97860 x425 + 91854 x426 + 109921 x427 + 104780 x428 + 107374 x429
       + 98201 x430 + 99611 x431 + 103899 x432 + 108143 x433 + 94464 x434
       + 90514 x435 + 96550 x436 + 109464 x437 + 94590 x438 + 95090 x439
       + 96472 x440 + 96534 x441 + 102295 x442 + 100454 x443 + 109008 x444
       + 101091 x445 + 104756 x446 + 91635 x447 + 91783 x448 + 99294 x449
       + 93597 x450 + 92621 x451 + 104727 x452 + 102104 x453 + 95277 x454
       + 105606 x455 + 100351 x456 + 90521 x457 + 101284 x458 + 92091 x459
       + 95408 x460 + 100120 x461 + 108232 x462 + 94221 x463 + 92947 x464
       + 108062 x465 + 96371 x466 + 93517 x467 + 106932 x468 + 97887 x469
       + 96771 x470 + 92896 x471 + 96166 x472 + 92144 x473 + 94469 x474
       + 96278 x475 + 102607 x476 + 92097 x477 + 93974 x478 + 95814 x479
       + 103769 x480 + 102366 x481 + 103176 x482 + 95072 x483 + 100498 x484
       + 104461 x485 + 103580 x486 + 95428 x487 + 98609 x488 + 99909 x489
       + 102346 x490 + 92478 x491 + 105717 x492 + 91059 x493 + 104702 x494
       + 109448 x495 + 93034 x496 + 105599 x497 + 104128 x498 + 95386 x499
       + 66459 x500 + 437645 x501 + 427798 x502 + 419226 x503 + 435820 x504
       + 409411 x505 + 384191 x506 + 417446 x507 + 402628 x508 + 401594 x509
       + 424641 x510 + 397203 x511 + 415686 x512 + 417975 x513 + 418878 x514
       + 389897 x515 + 368799 x516 + 416019 x517 + 401161 x518 + 413227 x519
       + 383284 x520 + 434504 x521 + 432195 x522 + 420677 x523 + 391693 x524
       + 366918 x525 + 438947 x526 + 397618 x527 + 430917 x528 + 378768 x529
       + 360328 x530 + 383489 x531 + 423575 x532 + 431422 x533 + 435481 x534
       + 437688 x535 + 399173 x536 + 407025 x537 + 407789 x538 + 412529 x539
       + 386628 x540 + 368507 x541 + 381502 x542 + 369809 x543 + 397271 x544
       + 415661 x545 + 419257 x546 + 418238 x547 + 372583 x548 + 372677 x549
       + 124602 x550
Subject To
 c1:   x3 + x6 - x15 - x19 + x23 + x25 - x30 + x31 - x36 - x37 + x43 - x48
       + x49  = 0
 c2:   x53 + x56 - x65 - x69 + x73 + x75 - x80 + x81 - x86 - x87 + x93 - x98
       + x99  = 0
 c3:   x103 + x106 - x115 - x119 + x123 + x125 - x130 + x131 - x136 - x137
       + x143 - x148 + x149  = 0
 c4:   x153 + x156 - x165 - x169 + x173 + x175 - x180 + x181 - x186 - x187
       + x193 - x198 + x199  = 0
 c5:   x203 + x206 - x215 - x219 + x223 + x225 - x230 + x231 - x236 - x237
       + x243 - x248 + x249  = 0
 c6:   x253 + x256 - x265 - x269 + x273 + x275 - x280 + x281 - x286 - x287
       + x293 - x298 + x299  = 0
 c7:   x303 + x306 - x315 - x319 + x323 + x325 - x330 + x331 - x336 - x337
       + x343 - x348 + x349  = 0
 c8:   x353 + x356 - x365 - x369 + x373 + x375 - x380 + x381 - x386 - x387
       + x393 - x398 + x399  = -1
 c9:   x403 + x406 - x415 - x419 + x423 + x425 - x430 + x431 - x436 - x437
       + x443 - x448 + x449  = 0
 c10:  x453 + x456 - x465 - x469 + x473 + x475 - x480 + x481 - x486 - x487
       + x493 - x498 + x499  = 0
 c11:  x2 + x5 + x20 - x21 - x23 + x28 - x33 + x38 + x44 + x47  = 0
 c12:  x52 + x55 + x70 - x71 - x73 + x78 - x83 + x88 + x94 + x97  = 0
 c13:  x102 + x105 + x120 - x121 - x123 + x128 - x133 + x138 + x144 + x147  = 0
 c14:  x152 + x155 + x170 - x171 - x173 + x178 - x183 + x188 + x194 + x197  = 0
 c15:  x202 + x205 + x220 - x221 - x223 + x228 - x233 + x238 + x244 + x247  = 0
 c16:  x252 + x255 + x270 - x271 - x273 + x278 - x283 + x288 + x294 + x297  = 0
 c17:  x302 + x305 + x320 - x321 - x323 + x328 - x333 + x338 + x344 + x347  = 0
 c18:  x352 + x355 + x370 - x371 - x373 + x378 - x383 + x388 + x394 + x397  = 0
 c19:  x402 + x405 + x420 - x421 - x423 + x428 - x433 + x438 + x444 + x447  = 0
 c20:  x452 + x455 + x470 - x471 - x473 + x478 - x483 + x488 + x494 + x497  = 0
 c21:  - x1 - x5 - x11 - x12 + x14 - x24 + x26 + x34 - x35 + x45 + x46 + x48
        = 0
 c22:  - x51 - x55 - x61 - x62 + x64 - x74 + x76 + x84 - x85 + x95 + x96 + x98
        = 0
 c23:  - x101 - x105 - x111 - x112 + x114 - x124 + x126 + x134 - x135 + x145
       + x146 + x148  = 1
 c24:  - x151 - x155 - x161 - x162 + x164 - x174 + x176 + x184 - x185 + x195
       + x196 + x198  = 0
 c25:  - x201 - x205 - x211 - x212 + x214 - x224 + x226 + x234 - x235 + x245
       + x246 + x248  = -1
 c26:  - x251 - x255 - x261 - x262 + x264 - x274 + x276 + x284 - x285 + x295
       + x296 + x298  = 0
 c27:  - x301 - x305 - x311 - x312 + x314 - x324 + x326 + x334 - x335 + x345
       + x346 + x348  = 1
 c28:  - x351 - x355 - x361 - x362 + x364 - x374 + x376 + x384 - x385 + x395
       + x396 + x398  = 0
 c29:  - x401 - x405 - x411 - x412 + x414 - x424 + x426 + x434 - x435 + x445
       + x446 + x448  = 0
 c30:  - x451 - x455 - x461 - x462 + x464 - x474 + x476 + x484 - x485 + x495
       + x496 + x498  = 0
 c31:  - x4 + x17 + x19 + x21 + x27 + x32 - x38 - x46 - x49  = 1
 c32:  - x54 + x67 + x69 + x71 + x77 + x82 - x88 - x96 - x99  = 0
 c33:  - x104 + x117 + x119 + x121 + x127 + x132 - x138 - x146 - x149  = 0
 c34:  - x154 + x167 + x169 + x171 + x177 + x182 - x188 - x196 - x199  = 0
 c35:  - x204 + x217 + x219 + x221 + x227 + x232 - x238 - x246 - x249  = 1
 c36:  - x254 + x267 + x269 + x271 + x277 + x282 - x288 - x296 - x299  = 1
 c37:  - x304 + x317 + x319 + x321 + x327 + x332 - x338 - x346 - x349  = -1
 c38:  - x354 + x367 + x369 + x371 + x377 + x382 - x388 - x396 - x399  = 0
 c39:  - x404 + x417 + x419 + x421 + x427 + x432 - x438 - x446 - x449  = 0
 c40:  - x454 + x467 + x469 + x471 + x477 + x482 - x488 - x496 - x499  = 1
 c41:  x9 - x10 - x20 - x22 - x31 - x32 - x34 + x50  = 0
 c42:  x59 - x60 - x70 - x72 - x81 - x82 - x84 + x100  = 0
 c43:  x109 - x110 - x120 - x122 - x131 - x132 - x134 + x150  = 0
 c44:  x159 - x160 - x170 - x172 - x181 - x182 - x184 + x200  = 0
 c45:  x209 - x210 - x220 - x222 - x231 - x232 - x234 + x250  = 0
 c46:  x259 - x260 - x270 - x272 - x281 - x282 - x284 + x300  = 0
 c47:  x309 - x310 - x320 - x322 - x331 - x332 - x334 + x350  = 0
 c48:  x359 - x360 - x370 - x372 - x381 - x382 - x384 + x400  = 0
 c49:  x409 - x410 - x420 - x422 - x431 - x432 - x434 + x450  = 1
 c50:  x459 - x460 - x470 - x472 - x481 - x482 - x484 + x500  = 0
 c51:  x4 - x6 - x8 + x10 + x12 + x13 - x17 + x36 + x39 + x40 + x41 - x44 - x50
        = 0
 c52:  x54 - x56 - x58 + x60 + x62 + x63 - x67 + x86 + x89 + x90 + x91 - x94
       - x100  = 0
 c53:  x104 - x106 - x108 + x110 + x112 + x113 - x117 + x136 + x139 + x140
       + x141 - x144 - x150  = 0
 c54:  x154 - x156 - x158 + x160 + x162 + x163 - x167 + x186 + x189 + x190
       + x191 - x194 - x200  = 0
 c55:  x204 - x206 - x208 + x210 + x212 + x213 - x217 + x236 + x239 + x240
       + x241 - x244 - x250  = 0
 c56:  x254 - x256 - x258 + x260 + x262 + x263 - x267 + x286 + x289 + x290
       + x291 - x294 - x300  = 0
 c57:  x304 - x306 - x308 + x310 + x312 + x313 - x317 + x336 + x339 + x340
       + x341 - x344 - x350  = 0
 c58:  x354 - x356 - x358 + x360 + x362 + x363 - x367 + x386 + x389 + x390
       + x391 - x394 - x400  = 0
 c59:  x404 - x406 - x408 + x410 + x412 + x413 - x417 + x436 + x439 + x440
       + x441 - x444 - x450  = 0
 c60:  x454 - x456 - x458 + x460 + x462 + x463 - x467 + x486 + x489 + x490
       + x491 - x494 - x500  = -1
 c61:  - x2 - x7 + x15 + x16 - x25 + x35 - x39  = 0
 c62:  - x52 - x57 + x65 + x66 - x75 + x85 - x89  = -1
 c63:  - x102 - x107 + x115 + x116 - x125 + x135 - x139  = 0
 c64:  - x152 - x157 + x165 + x166 - x175 + x185 - x189  = 0
 c65:  - x202 - x207 + x215 + x216 - x225 + x235 - x239  = 0
 c66:  - x252 - x257 + x265 + x266 - x275 + x285 - x289  = -1
 c67:  - x302 - x307 + x315 + x316 - x325 + x335 - x339  = 0
 c68:  - x352 - x357 + x365 + x366 - x375 + x385 - x389  = 1
 c69:  - x402 - x407 + x415 + x416 - x425 + x435 - x439  = -1
 c70:  - x452 - x457 + x465 + x466 - x475 + x485 - x489  = 0
 c71:  - x3 - x9 + x18 + x24 - x26 + x29 + x37 - x40 - x42 - x47  = 0
 c72:  - x53 - x59 + x68 + x74 - x76 + x79 + x87 - x90 - x92 - x97  = 1
 c73:  - x103 - x109 + x118 + x124 - x126 + x129 + x137 - x140 - x142 - x147
        = 0
 c74:  - x153 - x159 + x168 + x174 - x176 + x179 + x187 - x190 - x192 - x197
        = 1
 c75:  - x203 - x209 + x218 + x224 - x226 + x229 + x237 - x240 - x242 - x247
        = 0
 c76:  - x253 - x259 + x268 + x274 - x276 + x279 + x287 - x290 - x292 - x297
        = 0
 c77:  - x303 - x309 + x318 + x324 - x326 + x329 + x337 - x340 - x342 - x347
        = 0
 c78:  - x353 - x359 + x368 + x374 - x376 + x379 + x387 - x390 - x392 - x397
        = 0
 c79:  - x403 - x409 + x418 + x424 - x426 + x429 + x437 - x440 - x442 - x447
        = 0
 c80:  - x453 - x459 + x468 + x474 - x476 + x479 + x487 - x490 - x492 - x497
        = 0
 c81:  x8 + x11 - x13 - x29 + x30 + x42 - x43 - x45  = 0
 c82:  x58 + x61 - x63 - x79 + x80 + x92 - x93 - x95  = 0
 c83:  x108 + x111 - x113 - x129 + x130 + x142 - x143 - x145  = 0
 c84:  x158 + x161 - x163 - x179 + x180 + x192 - x193 - x195  = -1
 c85:  x208 + x211 - x213 - x229 + x230 + x242 - x243 - x245  = 0
 c86:  x258 + x261 - x263 - x279 + x280 + x292 - x293 - x295  = 0
 c87:  x308 + x311 - x313 - x329 + x330 + x342 - x343 - x345  = 0
 c88:  x358 + x361 - x363 - x379 + x380 + x392 - x393 - x395  = 0
 c89:  x408 + x411 - x413 - x429 + x430 + x442 - x443 - x445  = 0
 c90:  x458 + x461 - x463 - x479 + x480 + x492 - x493 - x495  = 0
 c91:  x1 + x7 - x14 - x16 - x18 + x22 - x27 - x28 + x33 - x41  = -1
 c92:  x51 + x57 - x64 - x66 - x68 + x72 - x77 - x78 + x83 - x91  = 0
 c93:  x101 + x107 - x114 - x116 - x118 + x122 - x127 - x128 + x133 - x141
        = -1
 c94:  x151 + x157 - x164 - x166 - x168 + x172 - x177 - x178 + x183 - x191  = 0
 c95:  x201 + x207 - x214 - x216 - x218 + x222 - x227 - x228 + x233 - x241  = 0
 c96:  x251 + x257 - x264 - x266 - x268 + x272 - x277 - x278 + x283 - x291  = 0
 c97:  x301 + x307 - x314 - x316 - x318 + x322 - x327 - x328 + x333 - x341  = 0
 c98:  x351 + x357 - x364 - x366 - x368 + x372 - x377 - x378 + x383 - x391  = 0
 c99:  x401 + x407 - x414 - x416 - x418 + x422 - x427 - x428 + x433 - x441  = 0
 c100: x451 + x457 - x464 - x466 - x468 + x472 - x477 - x478 + x483 - x491  = 0
 c101: 4 x1 + 4 x51 + 4 x101 + 4 x151 + 4 x201 + 4 x251 + 4 x301 + 4 x351
       + 4 x401 + 4 x451 - 19 x501 <= 0
 c102: 4 x2 + 4 x52 + 4 x102 + 4 x152 + 4 x202 + 4 x252 + 4 x302 + 4 x352
       + 4 x402 + 4 x452 - 19 x502 <= 0
 c103: 4 x3 + 4 x53 + 4 x103 + 4 x153 + 4 x203 + 4 x253 + 4 x303 + 4 x353
       + 4 x403 + 4 x453 - 19 x503 <= 0
 c104: 4 x4 + 4 x54 + 4 x104 + 4 x154 + 4 x204 + 4 x254 + 4 x304 + 4 x354
       + 4 x404 + 4 x454 - 21 x504 <= 0
 c105: 4 x5 + 4 x55 + 4 x105 + 4 x155 + 4 x205 + 4 x255 + 4 x305 + 4 x355
       + 4 x405 + 4 x455 - 18 x505 <= 0
 c106: 4 x6 + 4 x56 + 4 x106 + 4 x156 + 4 x206 + 4 x256 + 4 x306 + 4 x356
       + 4 x406 + 4 x456 - 20 x506 <= 0
 c107: 4 x7 + 4 x57 + 4 x107 + 4 x157 + 4 x207 + 4 x257 + 4 x307 + 4 x357
       + 4 x407 + 4 x457 - 18 x507 <= 0
 c108: 4 x8 + 4 x58 + 4 x108 + 4 x158 + 4 x208 + 4 x258 + 4 x308 + 4 x358
       + 4 x408 + 4 x458 - 20 x508 <= 0
 c109: 4 x9 + 4 x59 + 4 x109 + 4 x159 + 4 x209 + 4 x259 + 4 x309 + 4 x359
       + 4 x409 + 4 x459 - 19 x509 <= 0
 c110: 4 x10 + 4 x60 + 4 x110 + 4 x160 + 4 x210 + 4 x260 + 4 x310 + 4 x360
       + 4 x410 + 4 x460 - 21 x510 <= 0
 c111: 4 x11 + 4 x61 + 4 x111 + 4 x161 + 4 x211 + 4 x261 + 4 x311 + 4 x361
       + 4 x411 + 4 x461 - 20 x511 <= 0
 c112: 4 x12 + 4 x62 + 4 x112 + 4 x162 + 4 x212 + 4 x262 + 4 x312 + 4 x362
       + 4 x412 + 4 x462 - 21 x512 <= 0
 c113: 4 x13 + 4 x63 + 4 x113 + 4 x163 + 4 x213 + 4 x263 + 4 x313 + 4 x363
       + 4 x413 + 4 x463 - 21 x513 <= 0
 c114: 4 x14 + 4 x64 + 4 x114 + 4 x164 + 4 x214 + 4 x264 + 4 x314 + 4 x364
       + 4 x414 + 4 x464 - 21 x514 <= 0
 c115: 4 x15 + 4 x65 + 4 x115 + 4 x165 + 4 x215 + 4 x265 + 4 x315 + 4 x365
       + 4 x415 + 4 x465 - 19 x515 <= 0
 c116: 4 x16 + 4 x66 + 4 x116 + 4 x166 + 4 x216 + 4 x266 + 4 x316 + 4 x366
       + 4 x416 + 4 x466 - 19 x516 <= 0
 c117: 4 x17 + 4 x67 + 4 x117 + 4 x167 + 4 x217 + 4 x267 + 4 x317 + 4 x367
       + 4 x417 + 4 x467 - 22 x517 <= 0
 c118: 4 x18 + 4 x68 + 4 x118 + 4 x168 + 4 x218 + 4 x268 + 4 x318 + 4 x368
       + 4 x418 + 4 x468 - 20 x518 <= 0
 c119: 4 x19 + 4 x69 + 4 x119 + 4 x169 + 4 x219 + 4 x269 + 4 x319 + 4 x369
       + 4 x419 + 4 x469 - 18 x519 <= 0
 c120: 4 x20 + 4 x70 + 4 x120 + 4 x170 + 4 x220 + 4 x270 + 4 x320 + 4 x370
       + 4 x420 + 4 x470 - 19 x520 <= 0
 c121: 4 x21 + 4 x71 + 4 x121 + 4 x171 + 4 x221 + 4 x271 + 4 x321 + 4 x371
       + 4 x421 + 4 x471 - 20 x521 <= 0
 c122: 4 x22 + 4 x72 + 4 x122 + 4 x172 + 4 x222 + 4 x272 + 4 x322 + 4 x372
       + 4 x422 + 4 x472 - 19 x522 <= 0
 c123: 4 x23 + 4 x73 + 4 x123 + 4 x173 + 4 x223 + 4 x273 + 4 x323 + 4 x373
       + 4 x423 + 4 x473 - 19 x523 <= 0
 c124: 4 x24 + 4 x74 + 4 x124 + 4 x174 + 4 x224 + 4 x274 + 4 x324 + 4 x374
       + 4 x424 + 4 x474 - 20 x524 <= 0
 c125: 4 x25 + 4 x75 + 4 x125 + 4 x175 + 4 x225 + 4 x275 + 4 x325 + 4 x375
       + 4 x425 + 4 x475 - 20 x525 <= 0
 c126: 4 x26 + 4 x76 + 4 x126 + 4 x176 + 4 x226 + 4 x276 + 4 x326 + 4 x376
       + 4 x426 + 4 x476 - 20 x526 <= 0
 c127: 4 x27 + 4 x77 + 4 x127 + 4 x177 + 4 x227 + 4 x277 + 4 x327 + 4 x377
       + 4 x427 + 4 x477 - 21 x527 <= 0
 c128: 4 x28 + 4 x78 + 4 x128 + 4 x178 + 4 x228 + 4 x278 + 4 x328 + 4 x378
       + 4 x428 + 4 x478 - 19 x528 <= 0
 c129: 4 x29 + 4 x79 + 4 x129 + 4 x179 + 4 x229 + 4 x279 + 4 x329 + 4 x379
       + 4 x429 + 4 x479 - 18 x529 <= 0
 c130: 4 x30 + 4 x80 + 4 x130 + 4 x180 + 4 x230 + 4 x280 + 4 x330 + 4 x380
       + 4 x430 + 4 x480 - 20 x530 <= 0
 c131: 4 x31 + 4 x81 + 4 x131 + 4 x181 + 4 x231 + 4 x281 + 4 x331 + 4 x381
       + 4 x431 + 4 x481 - 22 x531 <= 0
 c132: 4 x32 + 4 x82 + 4 x132 + 4 x182 + 4 x232 + 4 x282 + 4 x332 + 4 x382
       + 4 x432 + 4 x482 - 21 x532 <= 0
 c133: 4 x33 + 4 x83 + 4 x133 + 4 x183 + 4 x233 + 4 x283 + 4 x333 + 4 x383
       + 4 x433 + 4 x483 - 20 x533 <= 0
 c134: 4 x34 + 4 x84 + 4 x134 + 4 x184 + 4 x234 + 4 x284 + 4 x334 + 4 x384
       + 4 x434 + 4 x484 - 18 x534 <= 0
 c135: 4 x35 + 4 x85 + 4 x135 + 4 x185 + 4 x235 + 4 x285 + 4 x335 + 4 x385
       + 4 x435 + 4 x485 - 22 x535 <= 0
 c136: 4 x36 + 4 x86 + 4 x136 + 4 x186 + 4 x236 + 4 x286 + 4 x336 + 4 x386
       + 4 x436 + 4 x486 - 21 x536 <= 0
 c137: 4 x37 + 4 x87 + 4 x137 + 4 x187 + 4 x237 + 4 x287 + 4 x337 + 4 x387
       + 4 x437 + 4 x487 - 19 x537 <= 0
 c138: 4 x38 + 4 x88 + 4 x138 + 4 x188 + 4 x238 + 4 x288 + 4 x338 + 4 x388
       + 4 x438 + 4 x488 - 22 x538 <= 0
 c139: 4 x39 + 4 x89 + 4 x139 + 4 x189 + 4 x239 + 4 x289 + 4 x339 + 4 x389
       + 4 x439 + 4 x489 - 19 x539 <= 0
 c140: 4 x40 + 4 x90 + 4 x140 + 4 x190 + 4 x240 + 4 x290 + 4 x340 + 4 x390
       + 4 x440 + 4 x490 - 22 x540 <= 0
 c141: 4 x41 + 4 x91 + 4 x141 + 4 x191 + 4 x241 + 4 x291 + 4 x341 + 4 x391
       + 4 x441 + 4 x491 - 19 x541 <= 0
 c142: 4 x42 + 4 x92 + 4 x142 + 4 x192 + 4 x242 + 4 x292 + 4 x342 + 4 x392
       + 4 x442 + 4 x492 - 20 x542 <= 0
 c143: 4 x43 + 4 x93 + 4 x143 + 4 x193 + 4 x243 + 4 x293 + 4 x343 + 4 x393
       + 4 x443 + 4 x493 - 20 x543 <= 0
 c144: 4 x44 + 4 x94 + 4 x144 + 4 x194 + 4 x244 + 4 x294 + 4 x344 + 4 x394
       + 4 x444 + 4 x494 - 18 x544 <= 0
 c145: 4 x45 + 4 x95 + 4 x145 + 4 x195 + 4 x245 + 4 x295 + 4 x345 + 4 x395
       + 4 x445 + 4 x495 - 22 x545 <= 0
 c146: 4 x46 + 4 x96 + 4 x146 + 4 x196 + 4 x246 + 4 x296 + 4 x346 + 4 x396
       + 4 x446 + 4 x496 - 21 x546 <= 0
 c147: 4 x47 + 4 x97 + 4 x147 + 4 x197 + 4 x247 + 4 x297 + 4 x347 + 4 x397
       + 4 x447 + 4 x497 - 20 x547 <= 0
 c148: 4 x48 + 4 x98 + 4 x148 + 4 x198 + 4 x248 + 4 x298 + 4 x348 + 4 x398
       + 4 x448 + 4 x498 - 19 x548 <= 0
 c149: 4 x49 + 4 x99 + 4 x149 + 4 x199 + 4 x249 + 4 x299 + 4 x349 + 4 x399
       + 4 x449 + 4 x499 - 20 x549 <= 0
 c150: 4 x50 + 4 x100 + 4 x150 + 4 x200 + 4 x250 + 4 x300 + 4 x350 + 4 x400
       + 4 x450 + 4 x500 - 25 x550 <= 0
Bounds
 0 <= x1 <= 1
 0 <= x2 <= 1
 0 <= x3 <= 1
 0 <= x4 <= 1
 0 <= x5 <= 1
 0 <= x6 <= 1
 0 <= x7 <= 1
 0 <= x8 <= 1
 0 <= x9 <= 1
 0 <= x10 <= 1
 0 <= x11 <= 1
 0 <= x12 <= 1
 0 <= x13 <= 1
 0 <= x14 <= 1
 0 <= x15 <= 1
 0 <= x16 <= 1
 0 <= x17 <= 1
 0 <= x18 <= 1
 0 <= x19 <= 1
 0 <= x20 <= 1
 0 <= x21 <= 1
 0 <= x22 <= 1
 0 <= x23 <= 1
 0 <= x24 <= 1
 0 <= x25 <= 1
 0 <= x26 <= 1
 0 <= x27 <= 1
 0 <= x28 <= 1
 0 <= x29 <= 1
 0 <= x30 <= 1
 0 <= x31 <= 1
 0 <= x32 <= 1
 0 <= x33 <= 1
 0 <= x34 <= 1
 0 <= x35 <= 1
 0 <= x36 <= 1
 0 <= x37 <= 1
 0 <= x38 <= 1
 0 <= x39 <= 1
 0 <= x40 <= 1
 0 <= x41 <= 1
 0 <= x42 <= 1
 0 <= x43 <= 1
 0 <= x44 <= 1
 0 <= x45 <= 1
 0 <= x46 <= 1
 0 <= x47 <= 1
 0 <= x48 <= 1
 0 <= x49 <= 1
 0 <= x50 <= 1
 0 <= x51 <= 1
 0 <= x52 <= 1
 0 <= x53 <= 1
 0 <= x54 <= 1
 0 <= x55 <= 1
 0 <= x56 <= 1
 0 <= x57 <= 1
 0 <= x58 <= 1
 0 <= x59 <= 1
 0 <= x60 <= 1
 0 <= x61 <= 1
 0 <= x62 <= 1
 0 <= x63 <= 1
 0 <= x64 <= 1
 0 <= x65 <= 1
 0 <= x66 <= 1
 0 <= x67 <= 1
 0 <= x68 <= 1
 0 <= x69 <= 1
 0 <= x70 <= 1
 0 <= x71 <= 1
 0 <= x72 <= 1
 0 <= x73 <= 1
 0 <= x74 <= 1
 0 <= x75 <= 1
 0 <= x76 <= 1
 0 <= x77 <= 1
 0 <= x78 <= 1
 0 <= x79 <= 1
 0 <= x80 <= 1
 0 <= x81 <= 1
 0 <= x82 <= 1
 0 <= x83 <= 1
 0 <= x84 <= 1
 0 <= x85 <= 1
 0 <= x86 <= 1
 0 <= x87 <= 1
 0 <= x88 <= 1
 0 <= x89 <= 1
 0 <= x90 <= 1
 0 <= x91 <= 1
 0 <= x92 <= 1
 0 <= x93 <= 1
 0 <= x94 <= 1
 0 <= x95 <= 1
 0 <= x96 <= 1
 0 <= x97 <= 1
 0 <= x98 <= 1
 0 <= x99 <= 1
 0 <= x100 <= 1
 0 <= x101 <= 1
 0 <= x102 <= 1
 0 <= x103 <= 1
 0 <= x104 <= 1
 0 <= x105 <= 1
 0 <= x106 <= 1
 0 <= x107 <= 1
 0 <= x108 <= 1
 0 <= x109 <= 1
 0 <= x110 <= 1
 0 <= x111 <= 1
 0 <= x112 <= 1
 0 <= x113 <= 1
 0 <= x114 <= 1
 0 <= x115 <= 1
 0 <= x116 <= 1
 0 <= x117 <= 1
 0 <= x118 <= 1
 0 <= x119 <= 1
 0 <= x120 <= 1
 0 <= x121 <= 1
 0 <= x122 <= 1
 0 <= x123 <= 1
 0 <= x124 <= 1
 0 <= x125 <= 1
 0 <= x126 <= 1
 0 <= x127 <= 1
 0 <= x128 <= 1
 0 <= x129 <= 1
 0 <= x130 <= 1
 0 <= x131 <= 1
 0 <= x132 <= 1
 0 <= x133 <= 1
 0 <= x134 <= 1
 0 <= x135 <= 1
 0 <= x136 <= 1
 0 <= x137 <= 1
 0 <= x138 <= 1
 0 <= x139 <= 1
 0 <= x140 <= 1
 0 <= x141 <= 1
 0 <= x142 <= 1
 0 <= x143 <= 1
 0 <= x144 <= 1
 0 <= x145 <= 1
 0 <= x146 <= 1
 0 <= x147 <= 1
 0 <= x148 <= 1
 0 <= x149 <= 1
 0 <= x150 <= 1
 0 <= x151 <= 1
 0 <= x152 <= 1
 0 <= x153 <= 1
 0 <= x154 <= 1
 0 <= x155 <= 1
 0 <= x156 <= 1
 0 <= x157 <= 1
 0 <= x158 <= 1
 0 <= x159 <= 1
 0 <= x160 <= 1
 0 <= x161 <= 1
 0 <= x162 <= 1
 0 <= x163 <= 1
 0 <= x164 <= 1
 0 <= x165 <= 1
 0 <= x166 <= 1
 0 <= x167 <= 1
 0 <= x168 <= 1
 0 <= x169 <= 1
 0 <= x170 <= 1
 0 <= x171 <= 1
 0 <= x172 <= 1
 0 <= x173 <= 1
 0 <= x174 <= 1
 0 <= x175 <= 1
 0 <= x176 <= 1
 0 <= x177 <= 1
 0 <= x178 <= 1
 0 <= x179 <= 1
 0 <= x180 <= 1
 0 <= x181 <= 1
 0 <= x182 <= 1
 0 <= x183 <= 1
 0 <= x184 <= 1
 0 <= x185 <= 1
 0 <= x186 <= 1
 0 <= x187 <= 1
 0 <= x188 <= 1
 0 <= x189 <= 1
 0 <= x190 <= 1
 0 <= x191 <= 1
 0 <= x192 <= 1
 0 <= x193 <= 1
 0 <= x194 <= 1
 0 <= x195 <= 1
 0 <= x196 <= 1
 0 <= x197 <= 1
 0 <= x198 <= 1
 0 <= x199 <= 1
 0 <= x200 <= 1
 0 <= x201 <= 1
 0 <= x202 <= 1
 0 <= x203 <= 1
 0 <= x204 <= 1
 0 <= x205 <= 1
 0 <= x206 <= 1
 0 <= x207 <= 1
 0 <= x208 <= 1
 0 <= x209 <= 1
 0 <= x210 <= 1
 0 <= x211 <= 1
 0 <= x212 <= 1
 0 <= x213 <= 1
 0 <= x214 <= 1
 0 <= x215 <= 1
 0 <= x216 <= 1
 0 <= x217 <= 1
 0 <= x218 <= 1
 0 <= x219 <= 1
 0 <= x220 <= 1
 0 <= x221 <= 1
 0 <= x222 <= 1
 0 <= x223 <= 1
 0 <= x224 <= 1
 0 <= x225 <= 1
 0 <= x226 <= 1
 0 <= x227 <= 1
 0 <= x228 <= 1
 0 <= x229 <= 1
 0 <= x230 <= 1
 0 <= x231 <= 1
 0 <= x232 <= 1
 0 <= x233 <= 1
 0 <= x234 <= 1
 0 <= x235 <= 1
 0 <= x236 <= 1
 0 <= x237 <= 1
 0 <= x238 <= 1
 0 <= x239 <= 1
 0 <= x240 <= 1
 0 <= x241 <= 1
 0 <= x242 <= 1
 0 <= x243 <= 1
 0 <= x244 <= 1
 0 <= x245 <= 1
 0 <= x246 <= 1
 0 <= x247 <= 1
 0 <= x248 <= 1
 0 <= x249 <= 1
 0 <= x250 <= 1
 0 <= x251 <= 1
 0 <= x252 <= 1
 0 <= x253 <= 1
 0 <= x254 <= 1
 0 <= x255 <= 1
 0 <= x256 <= 1
 0 <= x257 <= 1
 0 <= x258 <= 1
 0 <= x259 <= 1
 0 <= x260 <= 1
 0 <= x261 <= 1
 0 <= x262 <= 1
 0 <= x263 <= 1
 0 <= x264 <= 1
 0 <= x265 <= 1
 0 <= x266 <= 1
 0 <= x267 <= 1
 0 <= x268 <= 1
 0 <= x269 <= 1
 0 <= x270 <= 1
 0 <= x271 <= 1
 0 <= x272 <= 1
 0 <= x273 <= 1
 0 <= x274 <= 1
 0 <= x275 <= 1
 0 <= x276 <= 1
 0 <= x277 <= 1
 0 <= x278 <= 1
 0 <= x279 <= 1
 0 <= x280 <= 1
 0 <= x281 <= 1
 0 <= x282 <= 1
 0 <= x283 <= 1
 0 <= x284 <= 1
 0 <= x285 <= 1
 0 <= x286 <= 1
 0 <= x287 <= 1
 0 <= x288 <= 1
 0 <= x289 <= 1
 0 <= x290 <= 1
 0 <= x291 <= 1
 0 <= x292 <= 1
 0 <= x293 <= 1
 0 <= x294 <= 1
 0 <= x295 <= 1
 0 <= x296 <= 1
 0 <= x297 <= 1
 0 <= x298 <= 1
 0 <= x299 <= 1
 0 <= x300 <= 1
 0 <= x301 <= 1
 0 <= x302 <= 1
 0 <= x303 <= 1
 0 <= x304 <= 1
 0 <= x305 <= 1
 0 <= x306 <= 1
 0 <= x307 <= 1
 0 <= x308 <= 1
 0 <= x309 <= 1
 0 <= x310 <= 1
 0 <= x311 <= 1
 0 <= x312 <= 1
 0 <= x313 <= 1
 0 <= x314 <= 1
 0 <= x315 <= 1
 0 <= x316 <= 1
 0 <= x317 <= 1
 0 <= x318 <= 1
 0 <= x319 <= 1
 0 <= x320 <= 1
 0 <= x321 <= 1
 0 <= x322 <= 1
 0 <= x323 <= 1
 0 <= x324 <= 1
 0 <= x325 <= 1
 0 <= x326 <= 1
 0 <= x327 <= 1
 0 <= x328 <= 1
 0 <= x329 <= 1
 0 <= x330 <= 1
 0 <= x331 <= 1
 0 <= x332 <= 1
 0 <= x333 <= 1
 0 <= x334 <= 1
 0 <= x335 <= 1
 0 <= x336 <= 1
 0 <= x337 <= 1
 0 <= x338 <= 1
 0 <= x339 <= 1
 0 <= x340 <= 1
 0 <= x341 <= 1
 0 <= x342 <= 1
 0 <= x343 <= 1
 0 <= x344 <= 1
 0 <= x345 <= 1
 0 <= x346 <= 1
 0 <= x347 <= 1
 0 <= x348 <= 1
 0 <= x349 <= 1
 0 <= x350 <= 1
 0 <= x351 <= 1
 0 <= x352 <= 1
 0 <= x353 <= 1
 0 <= x354 <= 1
 0 <= x355 <= 1
 0 <= x356 <= 1
 0 <= x357 <= 1
 0 <= x358 <= 1
 0 <= x359 <= 1
 0 <= x360 <= 1
 0 <= x361 <= 1
 0 <= x362 <= 1
 0 <= x363 <= 1
 0 <= x364 <= 1
 0 <= x365 <= 1
 0 <= x366 <= 1
 0 <= x367 <= 1
 0 <= x368 <= 1
 0 <= x369 <= 1
 0 <= x370 <= 1
 0 <= x371 <= 1
 0 <= x372 <= 1
 0 <= x373 <= 1
 0 <= x374 <= 1
 0 <= x375 <= 1
 0 <= x376 <= 1
 0 <= x377 <= 1
 0 <= x378 <= 1
 0 <= x379 <= 1
 0 <= x380 <= 1
 0 <= x381 <= 1
 0 <= x382 <= 1
 0 <= x383 <= 1
 0 <= x384 <= 1
 0 <= x385 <= 1
 0 <= x386 <= 1
 0 <= x387 <= 1
 0 <= x388 <= 1
 0 <= x389 <= 1
 0 <= x390 <= 1
 0 <= x391 <= 1
 0 <= x392 <= 1
 0 <= x393 <= 1
 0 <= x394 <= 1
 0 <= x395 <= 1
 0 <= x396 <= 1
 0 <= x397 <= 1
 0 <= x398 <= 1
 0 <= x399 <= 1
 0 <= x400 <= 1
 0 <= x401 <= 1
 0 <= x402 <= 1
 0 <= x403 <= 1
 0 <= x404 <= 1
 0 <= x405 <= 1
 0 <= x406 <= 1
 0 <= x407 <= 1
 0 <= x408 <= 1
 0 <= x409 <= 1
 0 <= x410 <= 1
 0 <= x411 <= 1
 0 <= x412 <= 1
 0 <= x413 <= 1
 0 <= x414 <= 1
 0 <= x415 <= 1
 0 <= x416 <= 1
 0 <= x417 <= 1
 0 <= x418 <= 1
 0 <= x419 <= 1
 0 <= x420 <= 1
 0 <= x421 <= 1
 0 <= x422 <= 1
 0 <= x423 <= 1
 0 <= x424 <= 1
 0 <= x425 <= 1
 0 <= x426 <= 1
 0 <= x427 <= 1
 0 <= x428 <= 1
 0 <= x429 <= 1
 0 <= x430 <= 1
 0 <= x431 <= 1
 0 <= x432 <= 1
 0 <= x433 <= 1
 0 <= x434 <= 1
 0 <= x435 <= 1
 0 <= x436 <= 1
 0 <= x437 <= 1
 0 <= x438 <= 1
 0 <= x439 <= 1
 0 <= x440 <= 1
 0 <= x441 <= 1
 0 <= x442 <= 1
 0 <= x443 <= 1
 0 <= x444 <= 1
 0 <= x445 <= 1
 0 <= x446 <= 1
 0 <= x447 <= 1
 0 <= x448 <= 1
 0 <= x449 <= 1
 0 <= x450 <= 1
 0 <= x451 <= 1
 0 <= x452 <= 1
 0 <= x453 <= 1
 0 <= x454 <= 1
 0 <= x455 <= 1
 0 <= x456 <= 1
 0 <= x457 <= 1
 0 <= x458 <= 1
 0 <= x459 <= 1
 0 <= x460 <= 1
 0 <= x461 <= 1
 0 <= x462 <= 1
 0 <= x463 <= 1
 0 <= x464 <= 1
 0 <= x465 <= 1
 0 <= x466 <= 1
 0 <= x467 <= 1
 0 <= x468 <= 1
 0 <= x469 <= 1
 0 <= x470 <= 1
 0 <= x471 <= 1
 0 <= x472 <= 1
 0 <= x473 <= 1
 0 <= x474 <= 1
 0 <= x475 <= 1
 0 <= x476 <= 1
 0 <= x477 <= 1
 0 <= x478 <= 1
 0 <= x479 <= 1
 0 <= x480 <= 1
 0 <= x481 <= 1
 0 <= x482 <= 1
 0 <= x483 <= 1
 0 <= x484 <= 1
 0 <= x485 <= 1
 0 <= x486 <= 1
 0 <= x487 <= 1
 0 <= x488 <= 1
 0 <= x489 <= 1
 0 <= x490 <= 1
 0 <= x491 <= 1
 0 <= x492 <= 1
 0 <= x493 <= 1
 0 <= x494 <= 1
 0 <= x495 <= 1
 0 <= x496 <= 1
 0 <= x497 <= 1
 0 <= x498 <= 1
 0 <= x499 <= 1
 0 <= x500 <= 1
 0 <= x501 <= 1
 0 <= x502 <= 1
 0 <= x503 <= 1
 0 <= x504 <= 1
 0 <= x505 <= 1
 0 <= x506 <= 1
 0 <= x507 <= 1
 0 <= x508 <= 1
 0 <= x509 <= 1
 0 <= x510 <= 1
 0 <= x511 <= 1
 0 <= x512 <= 1
 0 <= x513 <= 1
 0 <= x514 <= 1
 0 <= x515 <= 1
 0 <= x516 <= 1
 0 <= x517 <= 1
 0 <= x518 <= 1
 0 <= x519 <= 1
 0 <= x520 <= 1
 0 <= x521 <= 1
 0 <= x522 <= 1
 0 <= x523 <= 1
 0 <= x524 <= 1
 0 <= x525 <= 1
 0 <= x526 <= 1
 0 <= x527 <= 1
 0 <= x528 <= 1
 0 <= x529 <= 1
 0 <= x530 <= 1
 0 <= x531 <= 1
 0 <= x532 <= 1
 0 <= x533 <= 1
 0 <= x534 <= 1
 0 <= x535 <= 1
 0 <= x536 <= 1
 0 <= x537 <= 1
 0 <= x538 <= 1
 0 <= x539 <= 1
 0 <= x540 <= 1
 0 <= x541 <= 1
 0 <= x542 <= 1
 0 <= x543 <= 1
 0 <= x544 <= 1
 0 <= x545 <= 1
 0 <= x546 <= 1
 0 <= x547 <= 1
 0 <= x548 <= 1
 0 <= x549 <= 1
 0 <= x550 <= 1
Binaries
 x501  x502  x503  x504  x505  x506  x507  x508  x509  x510  x511  x512  x513 
 x514  x515  x516  x517  x518  x519  x520  x521  x522  x523  x524  x525  x526 
 x527  x528  x529  x530  x531  x532  x533  x534  x535  x536  x537  x538  x539 
 x540  x541  x542  x543  x544  x545  x546  x547  x548  x549  x550 
End
